\ENCODING=ISO-8859-1
\Problem name: IloCplex

Minimize
 obj: z
Subject To
 c1:  - x_0 - x_1 - x_2 - x_3 - x_4 - x_5 - x_6 - x_7 - x_8 - x_9 - x_10 - x_11
      - x_12 - x_13 >= -2
 c2:  x_0 + x_10 + x_12 + x_13 >= 1
 c3:  x_1 + x_11 >= 1
 c4:  x_2 + x_11 + x_12 >= 1
 c5:  x_3 + x_10 >= 1
 c6:  x_4 + x_10 + x_13 >= 1
 c7:  x_5 + x_11 >= 1
 c8:  x_6 + x_10 + x_13 >= 1
 c9:  x_7 + x_10 + x_12 + x_13 >= 1
 c10: x_8 + x_10 + x_13 >= 1
 c11: x_9 + x_10 + x_13 >= 1
 c12: z - 102 x_10 - 114 x_12 - 97 x_13 >= 0
 c13: z - 119 x_11 >= 0
 c14: z - 119 x_11 - 114 x_12 >= 0
 c15: z - 102 x_10 >= 0
 c16: z - 102 x_10 - 97 x_13 >= 0
 c17: z - 119 x_11 >= 0
 c18: z - 102 x_10 - 97 x_13 >= 0
 c19: z - 102 x_10 - 114 x_12 - 97 x_13 >= 0
 c20: z - 102 x_10 - 97 x_13 >= 0
 c21: z - 102 x_10 - 97 x_13 >= 0
End
